NAME : LPS-n13-m301
COMMENT : (Lartu-Peter-Santi Plot, instance 4301 out of 39200. 13 customers.)
TYPE : CVRP
DIMENSION : 13
EDGE_WEIGHT_TYPE : EUC_2D
CAPACITY : 100
NODE_COORD_SECTION
 1 69 85
 2 88 75
 3 48 43
 4 7 54
 5 58 59
 6 9 23
 7 82 92
 8 21 65
 9 63 6
 10 58 29
 11 4 32
 12 90 81
 13 60 84
DEMAND_SECTION
1 0
2 2
3 1
4 75
5 59
6 60
7 61
8 99
9 84
10 3
11 70
12 37
13 16
DEPOT_SECTION
 1
 -1
EOF
